NAME: tsp50_10
COMMENT: 50-tsp problem (Padberg/Rinaldi)
TYPE: TSP
DIMENSION: 50
EDGE_WEIGHT_TYPE : EUC_2D
NODE_COORD_SECTION
1 15 18
2 37 5
3 10 37
4 23 0
5 21 31
6 17 17
7 37 1
8 37 10
9 38 13
10 12 12
11 20 39
12 8 39
13 10 19
14 14 29
15 29 9
16 36 24
17 11 23
18 20 7
19 1 28
20 15 18
21 4 19
22 39 3
23 24 38
24 32 40
25 38 14
26 30 9
27 13 27
28 9 14
29 37 32
30 7 36
31 18 24
32 10 30
33 24 32
34 27 2
35 6 19
36 4 11
37 11 4
38 10 16
39 7 39
40 1 23
41 15 39
42 11 15
43 20 22
44 4 1
45 5 29
46 20 11
47 29 1
48 20 1
49 23 0
50 29 20
